certificates/rado_a10_c114_N28.cnf
c Rad2 upper bound instance: x1 + 10*x2 - x3 = 114, interval [1,28]
p cnf 28 156
1 7 12 0
-1 -7 -12 0
1 13 17 0
-1 -13 -17 0
1 14 27 0
-1 -14 -27 0
2 8 12 0
-2 -8 -12 0
2 13 18 0
-2 -13 -18 0
2 14 28 0
-2 -14 -28 0
3 9 12 0
-3 -9 -12 0
3 13 19 0
-3 -13 -19 0
4 10 12 0
-4 -10 -12 0
4 13 20 0
-4 -13 -20 0
1 5 11 0
-1 -5 -11 0
5 11 12 0
-5 -11 -12 0
5 13 21 0
-5 -13 -21 0
2 6 11 0
-2 -6 -11 0
6 12 0
-6 -12 0
6 13 22 0
-6 -13 -22 0
3 7 11 0
-3 -7 -11 0
7 12 13 0
-7 -12 -13 0
7 13 23 0
-7 -13 -23 0
4 8 11 0
-4 -8 -11 0
8 12 14 0
-8 -12 -14 0
8 13 24 0
-8 -13 -24 0
5 9 11 0
-5 -9 -11 0
9 12 15 0
-9 -12 -15 0
9 13 25 0
-9 -13 -25 0
6 10 11 0
-6 -10 -11 0
10 12 16 0
-10 -12 -16 0
10 13 26 0
-10 -13 -26 0
7 11 0
-7 -11 0
11 12 17 0
-11 -12 -17 0
11 13 27 0
-11 -13 -27 0
8 11 12 0
-8 -11 -12 0
12 18 0
-12 -18 0
12 13 28 0
-12 -13 -28 0
9 11 13 0
-9 -11 -13 0
12 13 19 0
-12 -13 -19 0
10 11 14 0
-10 -11 -14 0
12 14 20 0
-12 -14 -20 0
1 10 15 0
-1 -10 -15 0
11 15 0
-11 -15 0
12 15 21 0
-12 -15 -21 0
2 10 16 0
-2 -10 -16 0
11 12 16 0
-11 -12 -16 0
12 16 22 0
-12 -16 -22 0
3 10 17 0
-3 -10 -17 0
11 13 17 0
-11 -13 -17 0
12 17 23 0
-12 -17 -23 0
4 10 18 0
-4 -10 -18 0
11 14 18 0
-11 -14 -18 0
12 18 24 0
-12 -18 -24 0
5 10 19 0
-5 -10 -19 0
11 15 19 0
-11 -15 -19 0
12 19 25 0
-12 -19 -25 0
6 10 20 0
-6 -10 -20 0
11 16 20 0
-11 -16 -20 0
12 20 26 0
-12 -20 -26 0
7 10 21 0
-7 -10 -21 0
11 17 21 0
-11 -17 -21 0
12 21 27 0
-12 -21 -27 0
8 10 22 0
-8 -10 -22 0
11 18 22 0
-11 -18 -22 0
12 22 28 0
-12 -22 -28 0
9 10 23 0
-9 -10 -23 0
11 19 23 0
-11 -19 -23 0
10 24 0
-10 -24 0
11 20 24 0
-11 -20 -24 0
1 9 25 0
-1 -9 -25 0
10 11 25 0
-10 -11 -25 0
11 21 25 0
-11 -21 -25 0
2 9 26 0
-2 -9 -26 0
10 12 26 0
-10 -12 -26 0
11 22 26 0
-11 -22 -26 0
3 9 27 0
-3 -9 -27 0
10 13 27 0
-10 -13 -27 0
11 23 27 0
-11 -23 -27 0
4 9 28 0
-4 -9 -28 0
10 14 28 0
-10 -14 -28 0
11 24 28 0
-11 -24 -28 0
