certificates/rado_a10_c114_N28.drat
-24 -28 0
12 -28 0
-8 -12 0
-28 0
24 -12 0
-12 0
6 0
18 0
13 0
22 0
-2 0
0
